;; Mutation-Based Equivalence Benchmark
;; Source:     AutomatArk / instance08857.smt2
;; Mutations:  intersect_no_spaces
;; Status:     sat
;;
;; Original regex vs mutated regex
;; Equivalence check: unsat ⟺ L(R1) = L(R2)

(set-info :smt-lib-version 2.6)
(set-info :category "mutation")
(set-info :status sat)
(set-logic QF_S)


;; R1: original
;; R2: mutated (intersect_no_spaces)
(assert
  (not
    (=
      (re.++ (str.to_re "/NFO,Registered") (re.* re.allchar) (str.to_re "Host:") (re.+ (re.union (str.to_re " ") (str.to_re "\u{9}") (str.to_re "\u{a}") (str.to_re "\u{c}") (str.to_re "\u{d}"))) (str.to_re "TPSystemHost:\u{a}"))
      (re.++ (str.to_re "/NFO,Registered") (re.* re.allchar) (str.to_re "Host:") (re.inter (re.+ (re.union (str.to_re " ") (str.to_re "\u{9}") (str.to_re "\u{a}") (str.to_re "\u{c}") (str.to_re "\u{d}"))) (re.comp (re.++ re.all (str.to_re " ") re.all))) (str.to_re "TPSystemHost:\u{a}")))))

(check-sat)
(exit)
